graph_generation/data/cp/tcsp/hexagonal_lattice_N_1_task_outside_shortest_path.dzn
nodes = 6;
edges = 12;
starts = [1, 1, 2, 3, 4, 5, 2, 4, 3, 6, 5, 6];
ends = [2, 4, 3, 6, 5, 6, 1, 1, 2, 3, 4, 5];
weights = [11, 4, 10, 1, 1, 3, 11, 4, 10, 1, 1, 3];
start = 1;
end= 6;
tasks = 1;
task = array2d(1..tasks, 1..nodes, [0, 0, 0, 0, 1, 0]);
