graph_generation/data/sat/tcsp/hexagonal_lattice_N_1_task_outside_shortest_path.txt
6 6 1 6 1
1 2 11
1 4 8
2 3 8
3 6 10
4 5 1
5 6 1
2
